NAME : Unnamed.621.tour
COMMENT : Length = 621
COMMENT : Found by LKH [Keld Helsgaun] Sat Oct 04 21:49:56 2014
TYPE : TOUR
DIMENSION : 35
TOUR_SECTION
1
20
14
18
28
24
33
30
23
15
19
16
17
3
35
12
4
2
13
9
7
6
11
8
10
5
29
31
27
32
34
22
25
21
26
-1
EOF
